p tw 169 30421 2 
1 3 
1 4 
1 5 
1 6 
1 7 
1 8 
1 9 
1 10 
1 11 
1 12 
1 13 
1 14 
1 21 
1 27 
1 36 
1 40 
1 50 
1 53 
1 65 
1 66 
1 77 
1 79 
1 87 
1 92 
1 98 
1 105 
1 110 
1 118 
1 121 
1 131 
1 132 
1 144 
1 148 
1 157 
1 159 
2 3 
2 4 
2 5 
2 6 
2 7 
2 8 
2 9 
2 10 
2 11 
2 12 
2 13 
2 15 
2 20 
2 28 
2 34 
2 41 
2 45 
2 54 
2 63 
2 67 
2 70 
2 80 
2 82 
2 93 
2 100 
2 106 
2 114 
2 119 
2 120 
2 132 
2 143 
2 145 
2 155 
2 157 
2 158 
3 4 
3 5 
3 6 
3 7 
3 8 
3 9 
3 10 
3 11 
3 12 
3 13 
3 16 
3 25 
3 28 
3 29 
3 42 
3 43 
3 55 
3 62 
3 68 
3 74 
3 81 
3 84 
3 94 
3 96 
3 107 
3 111 
3 120 
3 128 
3 133 
3 138 
3 144 
3 146 
3 159 
3 169 
4 5 
4 6 
4 7 
4 8 
4 9 
4 10 
4 11 
4 12 
4 13 
4 14 
4 17 
4 30 
4 32 
4 43 
4 44 
4 56 
4 60 
4 69 
4 72 
4 81 
4 82 
4 93 
4 95 
4 108 
4 117 
4 121 
4 129 
4 134 
4 141 
4 147 
4 153 
4 160 
4 165 
5 6 
5 7 
5 8 
5 9 
5 10 
5 11 
5 12 
5 13 
5 16 
5 18 
5 31 
5 39 
5 40 
5 44 
5 57 
5 64 
5 70 
5 71 
5 83 
5 86 
5 96 
5 101 
5 106 
5 109 
5 122 
5 126 
5 134 
5 135 
5 148 
5 150 
5 161 
5 167 
6 7 
6 8 
6 9 
6 10 
6 11 
6 12 
6 13 
6 19 
6 23 
6 32 
6 35 
6 45 
6 51 
6 57 
6 58 
6 71 
6 76 
6 84 
6 85 
6 95 
6 97 
6 107 
6 110 
6 119 
6 123 
6 131 
6 136 
6 149 
6 156 
6 162 
6 164 
7 8 
7 9 
7 10 
7 11 
7 12 
7 13 
7 18 
7 20 
7 30 
7 33 
7 41 
7 46 
7 55 
7 59 
7 66 
7 72 
7 85 
7 91 
7 97 
7 98 
7 111 
7 115 
7 124 
7 127 
7 137 
7 139 
7 150 
7 151 
7 163 
7 168 
8 9 
8 10 
8 11 
8 12 
8 13 
8 21 
8 22 
8 27 
8 34 
8 47 
8 52 
8 56 
8 60 
8 67 
8 73 
8 86 
8 88 
8 99 
8 102 
8 112 
8 116 
8 124 
8 125 
8 136 
8 138 
8 146 
8 151 
8 161 
8 164 
9 10 
9 11 
9 12 
9 13 
9 17 
9 22 
9 31 
9 35 
9 46 
9 48 
9 58 
9 61 
9 68 
9 74 
9 80 
9 87 
9 99 
9 100 
9 105 
9 113 
9 126 
9 130 
9 139 
9 142 
9 152 
9 154 
9 165 
9 166 
10 11 
10 12 
10 13 
10 15 
10 23 
10 36 
10 38 
10 47 
10 49 
10 53 
10 62 
10 75 
10 78 
10 88 
10 89 
10 94 
10 101 
10 113 
10 114 
10 122 
10 127 
10 137 
10 140 
10 149 
10 153 
10 160 
10 166 
11 12 
11 13 
11 24 
11 26 
11 33 
11 37 
11 42 
11 50 
11 54 
11 63 
11 73 
11 76 
11 83 
11 89 
11 102 
11 103 
11 108 
11 115 
11 118 
11 128 
11 140 
11 141 
11 152 
11 154 
11 162 
11 167 
12 13 
12 19 
12 25 
12 37 
12 38 
12 49 
12 51 
12 61 
12 64 
12 69 
12 77 
12 79 
12 90 
12 103 
12 104 
12 109 
12 116 
12 125 
12 129 
12 133 
12 142 
12 145 
12 155 
12 163 
12 168 
13 24 
13 26 
13 29 
13 39 
13 48 
13 52 
13 59 
13 65 
13 75 
13 78 
13 90 
13 91 
13 92 
13 104 
13 112 
13 117 
13 123 
13 130 
13 135 
13 143 
13 147 
13 156 
13 158 
13 169 
14 15 
14 16 
14 17 
14 18 
14 19 
14 20 
14 21 
14 22 
14 23 
14 24 
14 25 
14 26 
14 27 
14 32 
14 40 
14 44 
14 53 
14 60 
14 66 
14 72 
14 79 
14 81 
14 92 
14 93 
14 105 
14 117 
14 118 
14 129 
14 131 
14 141 
14 144 
14 153 
14 157 
14 165 
15 16 
15 17 
15 18 
15 19 
15 20 
15 21 
15 22 
15 23 
15 24 
15 25 
15 26 
15 28 
15 38 
15 41 
15 47 
15 53 
15 54 
15 67 
15 78 
15 80 
15 89 
15 93 
15 94 
15 106 
15 113 
15 119 
15 122 
15 132 
15 137 
15 145 
15 149 
15 158 
15 160 
16 17 
16 18 
16 19 
16 20 
16 21 
16 22 
16 23 
16 24 
16 25 
16 26 
16 29 
16 39 
16 40 
16 42 
16 55 
16 64 
16 68 
16 71 
16 81 
16 86 
16 94 
16 101 
16 106 
16 107 
16 120 
16 126 
16 133 
16 134 
16 146 
16 150 
16 159 
16 167 
17 18 
17 19 
17 20 
17 21 
17 22 
17 23 
17 24 
17 25 
17 26 
17 30 
17 31 
17 43 
17 46 
17 56 
17 58 
17 68 
17 69 
17 80 
17 82 
17 95 
17 99 
17 105 
17 108 
17 121 
17 130 
17 134 
17 142 
17 147 
17 154 
17 160 
17 166 
18 19 
18 20 
18 21 
18 22 
18 23 
18 24 
18 25 
18 26 
18 30 
18 31 
18 41 
18 44 
18 55 
18 57 
18 66 
18 70 
18 83 
18 91 
18 96 
18 97 
18 109 
18 115 
18 122 
18 127 
18 135 
18 139 
18 148 
18 151 
18 161 
18 168 
19 20 
19 21 
19 22 
19 23 
19 24 
19 25 
19 26 
19 32 
19 37 
19 45 
19 49 
19 58 
19 61 
19 69 
19 71 
19 79 
19 84 
19 97 
19 104 
19 109 
19 110 
19 123 
19 125 
19 133 
19 136 
19 145 
19 149 
19 162 
19 163 
20 21 
20 22 
20 23 
20 24 
20 25 
20 26 
20 33 
20 34 
20 45 
20 46 
20 59 
20 63 
20 70 
20 72 
20 82 
20 85 
20 98 
20 100 
20 111 
20 114 
20 120 
20 124 
20 137 
20 143 
20 150 
20 155 
20 157 
20 163 
21 22 
21 23 
21 24 
21 25 
21 26 
21 34 
21 36 
21 47 
21 50 
21 60 
21 65 
21 73 
21 77 
21 86 
21 87 
21 98 
21 99 
21 110 
21 112 
21 121 
21 125 
21 132 
21 138 
21 148 
21 151 
21 159 
21 164 
22 23 
22 24 
22 25 
22 26 
22 27 
22 35 
22 48 
22 52 
22 56 
22 61 
22 67 
22 74 
22 87 
22 88 
22 100 
22 102 
22 113 
22 116 
22 124 
22 126 
22 136 
22 139 
22 146 
22 152 
22 161 
22 165 
23 24 
23 25 
23 26 
23 35 
23 36 
23 49 
23 51 
23 57 
23 62 
23 75 
23 76 
23 85 
23 88 
23 95 
23 101 
23 107 
23 114 
23 119 
23 127 
23 131 
23 140 
23 153 
23 156 
23 164 
23 166 
24 25 
24 26 
24 29 
24 37 
24 48 
24 50 
24 59 
24 63 
24 75 
24 76 
24 89 
24 90 
24 92 
24 102 
24 112 
24 115 
24 123 
24 128 
24 135 
24 141 
24 147 
24 154 
24 158 
24 167 
25 26 
25 28 
25 38 
25 43 
25 51 
25 62 
25 64 
25 74 
25 77 
25 84 
25 90 
25 96 
25 103 
25 111 
25 116 
25 128 
25 129 
25 138 
25 142 
25 144 
25 155 
25 168 
25 169 
26 33 
26 39 
26 42 
26 52 
26 54 
26 65 
26 73 
26 78 
26 83 
26 91 
26 103 
26 104 
26 108 
26 117 
26 118 
26 130 
26 140 
26 143 
26 152 
26 156 
26 162 
26 169 
27 28 
27 29 
27 30 
27 31 
27 32 
27 33 
27 34 
27 35 
27 36 
27 37 
27 38 
27 39 
27 40 
27 52 
27 53 
27 56 
27 66 
27 67 
27 79 
27 88 
27 92 
27 102 
27 105 
27 116 
27 118 
27 124 
27 131 
27 136 
27 144 
27 146 
27 157 
27 161 
28 29 
28 30 
28 31 
28 32 
28 33 
28 34 
28 35 
28 36 
28 37 
28 38 
28 39 
28 41 
28 43 
28 54 
28 62 
28 67 
28 74 
28 80 
28 84 
28 93 
28 96 
28 106 
28 111 
28 119 
28 128 
28 132 
28 138 
28 144 
28 145 
28 158 
28 169 
29 30 
29 31 
29 32 
29 33 
29 34 
29 35 
29 36 
29 37 
29 38 
29 39 
29 42 
29 48 
29 55 
29 59 
29 68 
29 75 
29 81 
29 90 
29 92 
29 94 
29 107 
29 112 
29 120 
29 123 
29 133 
29 135 
29 146 
29 147 
29 158 
29 159 
30 31 
30 32 
30 33 
30 34 
30 35 
30 36 
30 37 
30 38 
30 39 
30 41 
30 43 
30 55 
30 56 
30 66 
30 69 
30 82 
30 91 
30 95 
30 97 
30 108 
30 115 
30 121 
30 127 
30 134 
30 139 
30 147 
30 151 
30 160 
30 168 
31 32 
31 33 
31 34 
31 35 
31 36 
31 37 
31 38 
31 39 
31 44 
31 46 
31 57 
31 58 
31 68 
31 70 
31 80 
31 83 
31 96 
31 99 
31 105 
31 109 
31 122 
31 130 
31 135 
31 142 
31 148 
31 154 
31 161 
31 166 
32 33 
32 34 
32 35 
32 36 
32 37 
32 38 
32 39 
32 44 
32 45 
32 58 
32 60 
32 71 
32 72 
32 81 
32 84 
32 93 
32 97 
32 110 
32 117 
32 123 
32 129 
32 136 
32 141 
32 149 
32 153 
32 162 
32 165 
33 34 
33 35 
33 36 
33 37 
33 38 
33 39 
33 42 
33 46 
33 54 
33 59 
33 72 
33 73 
33 83 
33 85 
33 98 
33 103 
33 108 
33 111 
33 118 
33 124 
33 137 
33 140 
33 150 
33 152 
33 162 
33 163 
34 35 
34 36 
34 37 
34 38 
34 39 
34 45 
34 47 
34 60 
34 63 
34 70 
34 73 
34 82 
34 86 
34 99 
34 100 
34 112 
34 114 
34 120 
34 125 
34 138 
34 143 
34 151 
34 155 
34 157 
34 164 
35 36 
35 37 
35 38 
35 39 
35 48 
35 51 
35 57 
35 61 
35 74 
35 76 
35 85 
35 87 
35 95 
35 100 
35 107 
35 113 
35 119 
35 126 
35 131 
35 139 
35 152 
35 156 
35 164 
35 165 
36 37 
36 38 
36 39 
36 49 
36 50 
36 62 
36 65 
36 75 
36 77 
36 87 
36 88 
36 98 
36 101 
36 110 
36 114 
36 121 
36 127 
36 132 
36 140 
36 148 
36 153 
36 159 
36 166 
37 38 
37 39 
37 49 
37 50 
37 61 
37 63 
37 69 
37 76 
37 79 
37 89 
37 102 
37 104 
37 109 
37 115 
37 125 
37 128 
37 133 
37 141 
37 145 
37 154 
37 163 
37 167 
38 39 
38 47 
38 51 
38 53 
38 64 
38 77 
38 78 
38 89 
38 90 
38 94 
38 103 
38 113 
38 116 
38 122 
38 129 
38 137 
38 142 
38 149 
38 155 
38 160 
38 168 
39 40 
39 52 
39 64 
39 65 
39 71 
39 78 
39 86 
39 91 
39 101 
39 104 
39 106 
39 117 
39 126 
39 130 
39 134 
39 143 
39 150 
39 156 
39 167 
39 169 
40 41 
40 42 
40 43 
40 44 
40 45 
40 46 
40 47 
40 48 
40 49 
40 50 
40 51 
40 52 
40 53 
40 64 
40 66 
40 71 
40 79 
40 86 
40 92 
40 101 
40 105 
40 106 
40 118 
40 126 
40 131 
40 134 
40 144 
40 150 
40 157 
40 167 
41 42 
41 43 
41 44 
41 45 
41 46 
41 47 
41 48 
41 49 
41 50 
41 51 
41 52 
41 54 
41 55 
41 66 
41 67 
41 80 
41 91 
41 93 
41 97 
41 106 
41 115 
41 119 
41 127 
41 132 
41 139 
41 145 
41 151 
41 158 
41 168 
42 43 
42 44 
42 45 
42 46 
42 47 
42 48 
42 49 
42 50 
42 51 
42 52 
42 54 
42 55 
42 68 
42 73 
42 81 
42 83 
42 94 
42 103 
42 107 
42 108 
42 118 
42 120 
42 133 
42 140 
42 146 
42 152 
42 159 
42 162 
43 44 
43 45 
43 46 
43 47 
43 48 
43 49 
43 50 
43 51 
43 52 
43 56 
43 62 
43 69 
43 74 
43 82 
43 84 
43 95 
43 96 
43 108 
43 111 
43 121 
43 128 
43 134 
43 138 
43 144 
43 147 
43 160 
43 169 
44 45 
44 46 
44 47 
44 48 
44 49 
44 50 
44 51 
44 52 
44 57 
44 60 
44 70 
44 72 
44 81 
44 83 
44 93 
44 96 
44 109 
44 117 
44 122 
44 129 
44 135 
44 141 
44 148 
44 153 
44 161 
44 165 
45 46 
45 47 
45 48 
45 49 
45 50 
45 51 
45 52 
45 58 
45 63 
45 70 
45 71 
45 82 
45 84 
45 97 
45 100 
45 110 
45 114 
45 120 
45 123 
45 136 
45 143 
45 149 
45 155 
45 157 
45 162 
46 47 
46 48 
46 49 
46 50 
46 51 
46 52 
46 58 
46 59 
46 68 
46 72 
46 80 
46 85 
46 98 
46 99 
46 105 
46 111 
46 124 
46 130 
46 137 
46 142 
46 150 
46 154 
46 163 
46 166 
47 48 
47 49 
47 50 
47 51 
47 52 
47 53 
47 60 
47 73 
47 78 
47 86 
47 89 
47 94 
47 99 
47 112 
47 113 
47 122 
47 125 
47 137 
47 138 
47 149 
47 151 
47 160 
47 164 
48 49 
48 50 
48 51 
48 52 
48 59 
48 61 
48 74 
48 75 
48 87 
48 90 
48 92 
48 100 
48 112 
48 113 
48 123 
48 126 
48 135 
48 139 
48 147 
48 152 
48 158 
48 165 
49 50 
49 51 
49 52 
49 61 
49 62 
49 69 
49 75 
49 79 
49 88 
49 101 
49 104 
49 109 
49 114 
49 125 
49 127 
49 133 
49 140 
49 145 
49 153 
49 163 
49 166 
50 51 
50 52 
50 63 
50 65 
50 76 
50 77 
50 87 
50 89 
50 98 
50 102 
50 110 
50 115 
50 121 
50 128 
50 132 
50 141 
50 148 
50 154 
50 159 
50 167 
51 52 
51 57 
51 64 
51 76 
51 77 
51 85 
51 90 
51 95 
51 103 
51 107 
51 116 
51 119 
51 129 
51 131 
51 142 
51 155 
51 156 
51 164 
51 168 
52 56 
52 65 
52 67 
52 78 
52 88 
52 91 
52 102 
52 104 
52 116 
52 117 
52 124 
52 130 
52 136 
52 143 
52 146 
52 156 
52 161 
52 169 
53 54 
53 55 
53 56 
53 57 
53 58 
53 59 
53 60 
53 61 
53 62 
53 63 
53 64 
53 65 
53 66 
53 78 
53 79 
53 89 
53 92 
53 94 
53 105 
53 113 
53 118 
53 122 
53 131 
53 137 
53 144 
53 149 
53 157 
53 160 
54 55 
54 56 
54 57 
54 58 
54 59 
54 60 
54 61 
54 62 
54 63 
54 64 
54 65 
54 67 
54 73 
54 80 
54 83 
54 93 
54 103 
54 106 
54 108 
54 118 
54 119 
54 132 
54 140 
54 145 
54 152 
54 158 
54 162 
55 56 
55 57 
55 58 
55 59 
55 60 
55 61 
55 62 
55 63 
55 64 
55 65 
55 66 
55 68 
55 81 
55 91 
55 94 
55 97 
55 107 
55 115 
55 120 
55 127 
55 133 
55 139 
55 146 
55 151 
55 159 
55 168 
56 57 
56 58 
56 59 
56 60 
56 61 
56 62 
56 63 
56 64 
56 65 
56 67 
56 69 
56 82 
56 88 
56 95 
56 102 
56 108 
56 116 
56 121 
56 124 
56 134 
56 136 
56 146 
56 147 
56 160 
56 161 
57 58 
57 59 
57 60 
57 61 
57 62 
57 63 
57 64 
57 65 
57 70 
57 76 
57 83 
57 85 
57 95 
57 96 
57 107 
57 109 
57 119 
57 122 
57 131 
57 135 
57 148 
57 156 
57 161 
57 164 
58 59 
58 60 
58 61 
58 62 
58 63 
58 64 
58 65 
58 68 
58 71 
58 80 
58 84 
58 97 
58 99 
58 105 
58 110 
58 123 
58 130 
58 136 
58 142 
58 149 
58 154 
58 162 
58 166 
59 60 
59 61 
59 62 
59 63 
59 64 
59 65 
59 72 
59 75 
59 85 
59 90 
59 92 
59 98 
59 111 
59 112 
59 123 
59 124 
59 135 
59 137 
59 147 
59 150 
59 158 
59 163 
60 61 
60 62 
60 63 
60 64 
60 65 
60 72 
60 73 
60 81 
60 86 
60 93 
60 99 
60 112 
60 117 
60 125 
60 129 
60 138 
60 141 
60 151 
60 153 
60 164 
60 165 
61 62 
61 63 
61 64 
61 65 
61 69 
61 74 
61 79 
61 87 
61 100 
61 104 
61 109 
61 113 
61 125 
61 126 
61 133 
61 139 
61 145 
61 152 
61 163 
61 165 
62 63 
62 64 
62 65 
62 74 
62 75 
62 84 
62 88 
62 96 
62 101 
62 111 
62 114 
62 127 
62 128 
62 138 
62 140 
62 144 
62 153 
62 166 
62 169 
63 64 
63 65 
63 70 
63 76 
63 82 
63 89 
63 100 
63 102 
63 114 
63 115 
63 120 
63 128 
63 141 
63 143 
63 154 
63 155 
63 157 
63 167 
64 65 
64 71 
64 77 
64 86 
64 90 
64 101 
64 103 
64 106 
64 116 
64 126 
64 129 
64 134 
64 142 
64 150 
64 155 
64 167 
64 168 
65 77 
65 78 
65 87 
65 91 
65 98 
65 104 
65 110 
65 117 
65 121 
65 130 
65 132 
65 143 
65 148 
65 156 
65 159 
65 169 
66 67 
66 68 
66 69 
66 70 
66 71 
66 72 
66 73 
66 74 
66 75 
66 76 
66 77 
66 78 
66 79 
66 91 
66 92 
66 97 
66 105 
66 115 
66 118 
66 127 
66 131 
66 139 
66 144 
66 151 
66 157 
66 168 
67 68 
67 69 
67 70 
67 71 
67 72 
67 73 
67 74 
67 75 
67 76 
67 77 
67 78 
67 80 
67 88 
67 93 
67 102 
67 106 
67 116 
67 119 
67 124 
67 132 
67 136 
67 145 
67 146 
67 158 
67 161 
68 69 
68 70 
68 71 
68 72 
68 73 
68 74 
68 75 
68 76 
68 77 
68 78 
68 80 
68 81 
68 94 
68 99 
68 105 
68 107 
68 120 
68 130 
68 133 
68 142 
68 146 
68 154 
68 159 
68 166 
69 70 
69 71 
69 72 
69 73 
69 74 
69 75 
69 76 
69 77 
69 78 
69 79 
69 82 
69 95 
69 104 
69 108 
69 109 
69 121 
69 125 
69 133 
69 134 
69 145 
69 147 
69 160 
69 163 
70 71 
70 72 
70 73 
70 74 
70 75 
70 76 
70 77 
70 78 
70 82 
70 83 
70 96 
70 100 
70 109 
70 114 
70 120 
70 122 
70 135 
70 143 
70 148 
70 155 
70 157 
70 161 
71 72 
71 73 
71 74 
71 75 
71 76 
71 77 
71 78 
71 84 
71 86 
71 97 
71 101 
71 106 
71 110 
71 123 
71 126 
71 134 
71 136 
71 149 
71 150 
71 162 
71 167 
72 73 
72 74 
72 75 
72 76 
72 77 
72 78 
72 81 
72 85 
72 93 
72 98 
72 111 
72 117 
72 124 
72 129 
72 137 
72 141 
72 150 
72 153 
72 163 
72 165 
73 74 
73 75 
73 76 
73 77 
73 78 
73 83 
73 86 
73 99 
73 103 
73 108 
73 112 
73 118 
73 125 
73 138 
73 140 
73 151 
73 152 
73 162 
73 164 
74 75 
74 76 
74 77 
74 78 
74 84 
74 87 
74 96 
74 100 
74 111 
74 113 
74 126 
74 128 
74 138 
74 139 
74 144 
74 152 
74 165 
74 169 
75 76 
75 77 
75 78 
75 88 
75 90 
75 92 
75 101 
75 112 
75 114 
75 123 
75 127 
75 135 
75 140 
75 147 
75 153 
75 158 
75 166 
76 77 
76 78 
76 85 
76 89 
76 95 
76 102 
76 107 
76 115 
76 119 
76 128 
76 131 
76 141 
76 154 
76 156 
76 164 
76 167 
77 78 
77 87 
77 90 
77 98 
77 103 
77 110 
77 116 
77 121 
77 129 
77 132 
77 142 
77 148 
77 155 
77 159 
77 168 
78 89 
78 91 
78 94 
78 104 
78 113 
78 117 
78 122 
78 130 
78 137 
78 143 
78 149 
78 156 
78 160 
78 169 
79 80 
79 81 
79 82 
79 83 
79 84 
79 85 
79 86 
79 87 
79 88 
79 89 
79 90 
79 91 
79 92 
79 104 
79 105 
79 109 
79 118 
79 125 
79 131 
79 133 
79 144 
79 145 
79 157 
79 163 
80 81 
80 82 
80 83 
80 84 
80 85 
80 86 
80 87 
80 88 
80 89 
80 90 
80 91 
80 93 
80 99 
80 105 
80 106 
80 119 
80 130 
80 132 
80 142 
80 145 
80 154 
80 158 
80 166 
81 82 
81 83 
81 84 
81 85 
81 86 
81 87 
81 88 
81 89 
81 90 
81 91 
81 93 
81 94 
81 107 
81 117 
81 120 
81 129 
81 133 
81 141 
81 146 
81 153 
81 159 
81 165 
82 83 
82 84 
82 85 
82 86 
82 87 
82 88 
82 89 
82 90 
82 91 
82 95 
82 100 
82 108 
82 114 
82 120 
82 121 
82 134 
82 143 
82 147 
82 155 
82 157 
82 160 
83 84 
83 85 
83 86 
83 87 
83 88 
83 89 
83 90 
83 91 
83 96 
83 103 
83 108 
83 109 
83 118 
83 122 
83 135 
83 140 
83 148 
83 152 
83 161 
83 162 
84 85 
84 86 
84 87 
84 88 
84 89 
84 90 
84 91 
84 96 
84 97 
84 110 
84 111 
84 123 
84 128 
84 136 
84 138 
84 144 
84 149 
84 162 
84 169 
85 86 
85 87 
85 88 
85 89 
85 90 
85 91 
85 95 
85 98 
85 107 
85 111 
85 119 
85 124 
85 131 
85 137 
85 150 
85 156 
85 163 
85 164 
86 87 
86 88 
86 89 
86 90 
86 91 
86 99 
86 101 
86 106 
86 112 
86 125 
86 126 
86 134 
86 138 
86 150 
86 151 
86 164 
86 167 
87 88 
87 89 
87 90 
87 91 
87 98 
87 100 
87 110 
87 113 
87 121 
87 126 
87 132 
87 139 
87 148 
87 152 
87 159 
87 165 
88 89 
88 90 
88 91 
88 101 
88 102 
88 114 
88 116 
88 124 
88 127 
88 136 
88 140 
88 146 
88 153 
88 161 
88 166 
89 90 
89 91 
89 94 
89 102 
89 113 
89 115 
89 122 
89 128 
89 137 
89 141 
89 149 
89 154 
89 160 
89 167 
90 91 
90 92 
90 103 
90 112 
90 116 
90 123 
90 129 
90 135 
90 142 
90 147 
90 155 
90 158 
90 168 
91 97 
91 104 
91 115 
91 117 
91 127 
91 130 
91 139 
91 143 
91 151 
91 156 
91 168 
91 169 
92 93 
92 94 
92 95 
92 96 
92 97 
92 98 
92 99 
92 100 
92 101 
92 102 
92 103 
92 104 
92 105 
92 112 
92 118 
92 123 
92 131 
92 135 
92 144 
92 147 
92 157 
92 158 
93 94 
93 95 
93 96 
93 97 
93 98 
93 99 
93 100 
93 101 
93 102 
93 103 
93 104 
93 106 
93 117 
93 119 
93 129 
93 132 
93 141 
93 145 
93 153 
93 158 
93 165 
94 95 
94 96 
94 97 
94 98 
94 99 
94 100 
94 101 
94 102 
94 103 
94 104 
94 107 
94 113 
94 120 
94 122 
94 133 
94 137 
94 146 
94 149 
94 159 
94 160 
95 96 
95 97 
95 98 
95 99 
95 100 
95 101 
95 102 
95 103 
95 104 
95 107 
95 108 
95 119 
95 121 
95 131 
95 134 
95 147 
95 156 
95 160 
95 164 
96 97 
96 98 
96 99 
96 100 
96 101 
96 102 
96 103 
96 104 
96 109 
96 111 
96 122 
96 128 
96 135 
96 138 
96 144 
96 148 
96 161 
96 169 
97 98 
97 99 
97 100 
97 101 
97 102 
97 103 
97 104 
97 110 
97 115 
97 123 
97 127 
97 136 
97 139 
97 149 
97 151 
97 162 
97 168 
98 99 
98 100 
98 101 
98 102 
98 103 
98 104 
98 110 
98 111 
98 121 
98 124 
98 132 
98 137 
98 148 
98 150 
98 159 
98 163 
99 100 
99 101 
99 102 
99 103 
99 104 
99 105 
99 112 
99 125 
99 130 
99 138 
99 142 
99 151 
99 154 
99 164 
99 166 
100 101 
100 102 
100 103 
100 104 
100 113 
100 114 
100 120 
100 126 
100 139 
100 143 
100 152 
100 155 
100 157 
100 165 
101 102 
101 103 
101 104 
101 106 
101 114 
101 126 
101 127 
101 134 
101 140 
101 150 
101 153 
101 166 
101 167 
102 103 
102 104 
102 115 
102 116 
102 124 
102 128 
102 136 
102 141 
102 146 
102 154 
102 161 
102 167 
103 104 
103 108 
103 116 
103 118 
103 129 
103 140 
103 142 
103 152 
103 155 
103 162 
103 168 
104 109 
104 117 
104 125 
104 130 
104 133 
104 143 
104 145 
104 156 
104 163 
104 169 
105 106 
105 107 
105 108 
105 109 
105 110 
105 111 
105 112 
105 113 
105 114 
105 115 
105 116 
105 117 
105 118 
105 130 
105 131 
105 142 
105 144 
105 154 
105 157 
105 166 
106 107 
106 108 
106 109 
106 110 
106 111 
106 112 
106 113 
106 114 
106 115 
106 116 
106 117 
106 119 
106 126 
106 132 
106 134 
106 145 
106 150 
106 158 
106 167 
107 108 
107 109 
107 110 
107 111 
107 112 
107 113 
107 114 
107 115 
107 116 
107 117 
107 119 
107 120 
107 131 
107 133 
107 146 
107 156 
107 159 
107 164 
108 109 
108 110 
108 111 
108 112 
108 113 
108 114 
108 115 
108 116 
108 117 
108 118 
108 121 
108 134 
108 140 
108 147 
108 152 
108 160 
108 162 
109 110 
109 111 
109 112 
109 113 
109 114 
109 115 
109 116 
109 117 
109 122 
109 125 
109 133 
109 135 
109 145 
109 148 
109 161 
109 163 
110 111 
110 112 
110 113 
110 114 
110 115 
110 116 
110 117 
110 121 
110 123 
110 132 
110 136 
110 148 
110 149 
110 159 
110 162 
111 112 
111 113 
111 114 
111 115 
111 116 
111 117 
111 124 
111 128 
111 137 
111 138 
111 144 
111 150 
111 163 
111 169 
112 113 
112 114 
112 115 
112 116 
112 117 
112 123 
112 125 
112 135 
112 138 
112 147 
112 151 
112 158 
112 164 
113 114 
113 115 
113 116 
113 117 
113 122 
113 126 
113 137 
113 139 
113 149 
113 152 
113 160 
113 165 
114 115 
114 116 
114 117 
114 120 
114 127 
114 140 
114 143 
114 153 
114 155 
114 157 
114 166 
115 116 
115 117 
115 127 
115 128 
115 139 
115 141 
115 151 
115 154 
115 167 
115 168 
116 117 
116 124 
116 129 
116 136 
116 142 
116 146 
116 155 
116 161 
116 168 
117 129 
117 130 
117 141 
117 143 
117 153 
117 156 
117 165 
117 169 
118 119 
118 120 
118 121 
118 122 
118 123 
118 124 
118 125 
118 126 
118 127 
118 128 
118 129 
118 130 
118 131 
118 140 
118 144 
118 152 
118 157 
118 162 
119 120 
119 121 
119 122 
119 123 
119 124 
119 125 
119 126 
119 127 
119 128 
119 129 
119 130 
119 131 
119 132 
119 145 
119 156 
119 158 
119 164 
120 121 
120 122 
120 123 
120 124 
120 125 
120 126 
120 127 
120 128 
120 129 
120 130 
120 133 
120 143 
120 146 
120 155 
120 157 
120 159 
121 122 
121 123 
121 124 
121 125 
121 126 
121 127 
121 128 
121 129 
121 130 
121 132 
121 134 
121 147 
121 148 
121 159 
121 160 
122 123 
122 124 
122 125 
122 126 
122 127 
122 128 
122 129 
122 130 
122 135 
122 137 
122 148 
122 149 
122 160 
122 161 
123 124 
123 125 
123 126 
123 127 
123 128 
123 129 
123 130 
123 135 
123 136 
123 147 
123 149 
123 158 
123 162 
124 125 
124 126 
124 127 
124 128 
124 129 
124 130 
124 136 
124 137 
124 146 
124 150 
124 161 
124 163 
125 126 
125 127 
125 128 
125 129 
125 130 
125 133 
125 138 
125 145 
125 151 
125 163 
125 164 
126 127 
126 128 
126 129 
126 130 
126 134 
126 139 
126 150 
126 152 
126 165 
126 167 
127 128 
127 129 
127 130 
127 139 
127 140 
127 151 
127 153 
127 166 
127 168 
128 129 
128 130 
128 138 
128 141 
128 144 
128 154 
128 167 
128 169 
129 130 
129 141 
129 142 
129 153 
129 155 
129 165 
129 168 
130 142 
130 143 
130 154 
130 156 
130 166 
130 169 
131 132 
131 133 
131 134 
131 135 
131 136 
131 137 
131 138 
131 139 
131 140 
131 141 
131 142 
131 143 
131 144 
131 156 
131 157 
131 164 
132 133 
132 134 
132 135 
132 136 
132 137 
132 138 
132 139 
132 140 
132 141 
132 142 
132 143 
132 145 
132 148 
132 158 
132 159 
133 134 
133 135 
133 136 
133 137 
133 138 
133 139 
133 140 
133 141 
133 142 
133 143 
133 145 
133 146 
133 159 
133 163 
134 135 
134 136 
134 137 
134 138 
134 139 
134 140 
134 141 
134 142 
134 143 
134 147 
134 150 
134 160 
134 167 
135 136 
135 137 
135 138 
135 139 
135 140 
135 141 
135 142 
135 143 
135 147 
135 148 
135 158 
135 161 
136 137 
136 138 
136 139 
136 140 
136 141 
136 142 
136 143 
136 146 
136 149 
136 161 
136 162 
137 138 
137 139 
137 140 
137 141 
137 142 
137 143 
137 149 
137 150 
137 160 
137 163 
138 139 
138 140 
138 141 
138 142 
138 143 
138 144 
138 151 
138 164 
138 169 
139 140 
139 141 
139 142 
139 143 
139 151 
139 152 
139 165 
139 168 
140 141 
140 142 
140 143 
140 152 
140 153 
140 162 
140 166 
141 142 
141 143 
141 153 
141 154 
141 165 
141 167 
142 143 
142 154 
142 155 
142 166 
142 168 
143 155 
143 156 
143 157 
143 169 
144 145 
144 146 
144 147 
144 148 
144 149 
144 150 
144 151 
144 152 
144 153 
144 154 
144 155 
144 156 
144 157 
144 169 
145 146 
145 147 
145 148 
145 149 
145 150 
145 151 
145 152 
145 153 
145 154 
145 155 
145 156 
145 158 
145 163 
146 147 
146 148 
146 149 
146 150 
146 151 
146 152 
146 153 
146 154 
146 155 
146 156 
146 159 
146 161 
147 148 
147 149 
147 150 
147 151 
147 152 
147 153 
147 154 
147 155 
147 156 
147 158 
147 160 
148 149 
148 150 
148 151 
148 152 
148 153 
148 154 
148 155 
148 156 
148 159 
148 161 
149 150 
149 151 
149 152 
149 153 
149 154 
149 155 
149 156 
149 160 
149 162 
150 151 
150 152 
150 153 
150 154 
150 155 
150 156 
150 163 
150 167 
151 152 
151 153 
151 154 
151 155 
151 156 
151 164 
151 168 
152 153 
152 154 
152 155 
152 156 
152 162 
152 165 
153 154 
153 155 
153 156 
153 165 
153 166 
154 155 
154 156 
154 166 
154 167 
155 156 
155 157 
155 168 
156 164 
156 169 
157 158 
157 159 
157 160 
157 161 
157 162 
157 163 
157 164 
157 165 
157 166 
157 167 
157 168 
157 169 
158 159 
158 160 
158 161 
158 162 
158 163 
158 164 
158 165 
158 166 
158 167 
158 168 
158 169 
159 160 
159 161 
159 162 
159 163 
159 164 
159 165 
159 166 
159 167 
159 168 
159 169 
160 161 
160 162 
160 163 
160 164 
160 165 
160 166 
160 167 
160 168 
160 169 
161 162 
161 163 
161 164 
161 165 
161 166 
161 167 
161 168 
161 169 
162 163 
162 164 
162 165 
162 166 
162 167 
162 168 
162 169 
163 164 
163 165 
163 166 
163 167 
163 168 
163 169 
164 165 
164 166 
164 167 
164 168 
164 169 
165 166 
165 167 
165 168 
165 169 
166 167 
166 168 
166 169 
167 168 
167 169 
168 169 
